&control
   calculation = 'scf'
   restart_mode='from_scratch',
   prefix='si',
   pseudo_dir = './'
   outdir='./'
/
&system
   ibrav=  2, celldm(1) =10.20, nat=  2, ntyp= 1,
   ecutwfc = 44.0,
   nbnd = 16
/
&electrons
   diagonalization='david'
   mixing_mode = 'plain'
   mixing_beta = 0.2
   conv_thr =  1.0d-8
/
ATOMIC_SPECIES
 Si  28.086 Si.pbe-n-rrkjus_psl.1.0.0.UPF 

ATOMIC_POSITIONS alat
 Si 0.00 0.00 0.00
 Si 0.25 0.25 0.25

K_POINTS automatic
 15 15 15 0 0 0 
