INPUT_PARAMETERS

#Parameters	(General)
pseudo_dir      ./
orbital_dir     ./

#Parameters (Accuracy)
ecutwfc			100
scf_nmax		100
scf_thr         1e-8

basis_type		lcao

mixing_type     pulay
mixing_beta     0.5

smearing_method gauss
smearing_sigma  0.001

gamma_only 1
symmetry 0
