#This is the atom file containing all the information
#about the lattice structure.

ATOMIC_SPECIES
In 1.000 PP_FILE

NUMERICAL_ORBITAL
ORB_FILE

LATTICE_CONSTANT
20  			#Lattice constant

LATTICE_VECTORS
1.0 0.0 0.0 		#Lattice vector 1
0.0 1.0 0.0 		#Lattice vector 2
0.0 0.0 1.0 		#Lattice vector 3

ATOMIC_POSITIONS
Cartesian_angstrom
In
0.0
2
0.00    0.00    0.00      1   1   1
0.00    0.00    LENGTH      1   1   1
