INPUT_PARAMETERS

#Parameters	(General)
pseudo_dir      ../
orbital_dir     ../
suffix          In2

#Parameters (Accuracy)
ecutwfc			20
scf_nmax		2
scf_thr         1e-8

basis_type		lcao

gamma_only 1
