INPUT_PARAMETERS

pseudo_dir      ../
orbital_dir     ../

ecutwfc	        50
scf_thr         1e-8

basis_type		lcao
gamma_only      1

smearing_method fixed

