#This is the atom file containing all the information
#about the lattice structure.

ATOMIC_SPECIES
In 1.000 In.PD04.PBE.UPF
#In 1.000 In_ONCV_PBE-1.0.upf

NUMERICAL_ORBITAL
In_gga_10au_100Ry_2s2p2d1f.orb

LATTICE_CONSTANT
20  			#Lattice constant

LATTICE_VECTORS
1.0 0.0 0.0 		#Lattice vector 1
0.0 1.0 0.0 		#Lattice vector 2
0.0 0.0 1.0 		#Lattice vector 3

ATOMIC_POSITIONS
Cartesian_angstrom
In
0.0
2
0.00    0.00    0.00    1   1   1
0.00    0.00    3.50    1   1   1
